c Random generated cnf formula, satisfiable: true
p cnf 10 50
7 2 -5 0
-2 3 -10 0
10 -8 2 0
9 1 8 0
7 -2 9 0
2 -7 -5 0
-1 -2 7 0
-5 4 -1 0
3 -4 5 0
8 -5 2 0
-10 -5 -9 0
10 -6 -4 0
5 10 8 0
4 -7 -6 0
3 -7 -6 0
-2 -8 10 0
-5 -9 -1 0
7 5 9 0
-1 5 2 0
1 -8 5 0
-6 7 9 0
1 -4 -6 0
6 -4 -1 0
-6 -5 -4 0
-2 7 6 0
-3 7 -4 0
10 -7 1 0
9 -1 -4 0
3 -9 2 0
1 3 -9 0
1 -6 4 0
7 1 8 0
7 -5 10 0
-8 3 2 0
-9 -5 10 0
-9 5 -3 0
1 3 -8 0
-2 -7 10 0
1 9 3 0
-4 -2 8 0
4 3 10 0
5 1 -10 0
-3 -5 -7 0
-9 8 4 0
3 -1 -2 0
-10 7 -6 0
-5 3 8 0
7 3 -2 0
4 -10 7 0
-6 2 -8 0
